\Problem name: 

Minimize
OBJROW: 871,17657 var(0) + 924,01935 var(1) + 924,02057 var(2) + 791,76990 var(3)
Subject To
constr(0):  var(0) >= 1
constr(1):  var(1) + var(2) >= 1
constr(2):  var(2) >= 1
constr(3):  var(3) >= 1
Bounds
 0 <= var(0) <= 1
 0 <= var(1) <= 1
 0 <= var(2) <= 1
 0 <= var(3) <= 1
Integers
var(0) var(1) var(2) var(3) 
End
